outputs/case_196.model.txt
internal_operation_execution_confirmed = True
internal_handling_system_established = True
internal_operation_system_established = True
internal_handling_execution_confirmed = True
internal_control_system_established = True
internal_control_execution_confirmed = True
internal_handling_established = True
training_held_regularly = True
control_procedures_established = True
other_required_matters_established = True
internal_control_executed = True
dedicated_personnel_assigned = True
penalty = False
internal_control_established = True
internal_handling_executed = True
internal_operation_established = True
audit_procedures_established = True
risk_assessment_report_updated = True
bank_violation = False
internal_operation_executed = True